webassembly/ejemplos_results/12/folder12_json_57.txt
value = 12;
fgas = [1, 1, 1, 1, 2, 1, 1, 1, 1, 1, 1, 1];
fsize = [1, 1, 1, 1, 1, 1, 1, 1, 1, 1, 1, 1];
states = 
[|    in_0,    in_1,   in_2, in_3, in_4, '.', '.', '.', '.', '.', '.', '.'
 |    in_1,    in_2,   in_3, in_4,  '.', '.', '.', '.', '.', '.', '.', '.'
 |  's(1)',    in_0,   in_4,  '.',  '.', '.', '.', '.', '.', '.', '.', '.'
 |  's(3)',  's(1)',   in_0, in_4,  '.', '.', '.', '.', '.', '.', '.', '.'
 |  's(4)',  's(3)', 's(1)', in_0, in_4, '.', '.', '.', '.', '.', '.', '.'
 |  's(3)',  's(1)',   in_0, in_4,  '.', '.', '.', '.', '.', '.', '.', '.'
 |    in_4,    in_3,    '.',  '.',  '.', '.', '.', '.', '.', '.', '.', '.'
 |  's(2)',    in_3,    '.',  '.',  '.', '.', '.', '.', '.', '.', '.', '.'
 |    in_3,     '.',    '.',  '.',  '.', '.', '.', '.', '.', '.', '.', '.'
 |  's(4)',    in_3,    '.',  '.',  '.', '.', '.', '.', '.', '.', '.', '.'
 | local_0, local_1,    '.',  '.',  '.', '.', '.', '.', '.', '.', '.', '.'
 |  's(0)', local_1,    '.',  '.',  '.', '.', '.', '.', '.', '.', '.', '.'
 |     '.',     '.',    '.',  '.',  '.', '.', '.', '.', '.', '.', '.', '.'
 |];
register_states = 
[| local_0, local_1, '.', '.', '.', '.', '.'
 | local_0,    in_0, '.', '.', '.', '.', '.'
 | local_0,    in_0, '.', '.', '.', '.', '.'
 | local_0,    in_0, '.', '.', '.', '.', '.'
 | local_0,    in_0, '.', '.', '.', '.', '.'
 | local_0,    in_0, '.', '.', '.', '.', '.'
 | local_0,    in_0, '.', '.', '.', '.', '.'
 | local_0,    in_0, '.', '.', '.', '.', '.'
 |  's(2)',    in_0, '.', '.', '.', '.', '.'
 |  's(2)',    in_0, '.', '.', '.', '.', '.'
 |  's(2)',    in_0, '.', '.', '.', '.', '.'
 |  's(2)',    in_0, '.', '.', '.', '.', '.'
 |  's(2)',    in_0, '.', '.', '.', '.', '.'
 |];
program = [S(SET2), O('i32.sub_0'), O('i32.const_0'), O('i32.const_1'), POP, O('i32.store8_7'), O('i32.load16_s_10'), S(SET1), O('i32.const_1'), O('i32.store8_9'), O('i32.load16_s_2'), O('i32.store_3')];
% time elapsed: 0.39 s
----------
value = 11;
fgas = [1, 1, 1, 1, 1, 1, 1, 1, 1, 1, 1, 0];
fsize = [1, 1, 1, 1, 1, 1, 1, 1, 1, 1, 1, 1];
states = 
[|    in_0,    in_1, in_2, in_3, in_4, '.', '.', '.', '.', '.', '.', '.'
 |    in_1,    in_2, in_3, in_4,  '.', '.', '.', '.', '.', '.', '.', '.'
 |  's(1)',    in_0, in_4,  '.',  '.', '.', '.', '.', '.', '.', '.', '.'
 |  's(3)',  's(1)', in_0, in_4,  '.', '.', '.', '.', '.', '.', '.', '.'
 |    in_4,    in_3,  '.',  '.',  '.', '.', '.', '.', '.', '.', '.', '.'
 |    in_4,    in_3,  '.',  '.',  '.', '.', '.', '.', '.', '.', '.', '.'
 |  's(2)',    in_3,  '.',  '.',  '.', '.', '.', '.', '.', '.', '.', '.'
 |    in_3,     '.',  '.',  '.',  '.', '.', '.', '.', '.', '.', '.', '.'
 |  's(4)',    in_3,  '.',  '.',  '.', '.', '.', '.', '.', '.', '.', '.'
 | local_0, local_1,  '.',  '.',  '.', '.', '.', '.', '.', '.', '.', '.'
 |  's(0)', local_1,  '.',  '.',  '.', '.', '.', '.', '.', '.', '.', '.'
 |     '.',     '.',  '.',  '.',  '.', '.', '.', '.', '.', '.', '.', '.'
 |     '.',     '.',  '.',  '.',  '.', '.', '.', '.', '.', '.', '.', '.'
 |];
register_states = 
[| local_0, local_1, '.', '.', '.', '.', '.'
 | local_0,    in_0, '.', '.', '.', '.', '.'
 | local_0,    in_0, '.', '.', '.', '.', '.'
 | local_0,    in_0, '.', '.', '.', '.', '.'
 | local_0,    in_0, '.', '.', '.', '.', '.'
 |    in_4,    in_0, '.', '.', '.', '.', '.'
 |    in_4,    in_0, '.', '.', '.', '.', '.'
 |  's(2)',    in_0, '.', '.', '.', '.', '.'
 |  's(2)',    in_0, '.', '.', '.', '.', '.'
 |  's(2)',    in_0, '.', '.', '.', '.', '.'
 |  's(2)',    in_0, '.', '.', '.', '.', '.'
 |  's(2)',    in_0, '.', '.', '.', '.', '.'
 |  's(2)',    in_0, '.', '.', '.', '.', '.'
 |];
program = [S(SET2), O('i32.sub_0'), O('i32.const_0'), O('i32.store8_7'), TEE(TEE1), O('i32.load16_s_10'), S(SET1), O('i32.const_1'), O('i32.store8_9'), O('i32.load16_s_2'), O('i32.store_3'), NOP];
% time elapsed: 0.40 s
----------
value = 10;
fgas = [1, 1, 1, 1, 1, 1, 1, 1, 1, 1, 0, 0];
fsize = [1, 1, 1, 1, 1, 1, 1, 1, 1, 1, 1, 1];
states = 
[|    in_0,    in_1, in_2, in_3, in_4, '.', '.', '.', '.', '.', '.', '.'
 |    in_1,    in_2, in_3, in_4,  '.', '.', '.', '.', '.', '.', '.', '.'
 |  's(1)',    in_0, in_4,  '.',  '.', '.', '.', '.', '.', '.', '.', '.'
 |  's(3)',  's(1)', in_0, in_4,  '.', '.', '.', '.', '.', '.', '.', '.'
 | local_0, local_1,  '.',  '.',  '.', '.', '.', '.', '.', '.', '.', '.'
 |  's(0)', local_1,  '.',  '.',  '.', '.', '.', '.', '.', '.', '.', '.'
 |    in_3,    in_0,  '.',  '.',  '.', '.', '.', '.', '.', '.', '.', '.'
 |  's(4)',    in_3, in_0,  '.',  '.', '.', '.', '.', '.', '.', '.', '.'
 |    in_4,     '.',  '.',  '.',  '.', '.', '.', '.', '.', '.', '.', '.'
 |  's(2)',     '.',  '.',  '.',  '.', '.', '.', '.', '.', '.', '.', '.'
 |     '.',     '.',  '.',  '.',  '.', '.', '.', '.', '.', '.', '.', '.'
 |     '.',     '.',  '.',  '.',  '.', '.', '.', '.', '.', '.', '.', '.'
 |     '.',     '.',  '.',  '.',  '.', '.', '.', '.', '.', '.', '.', '.'
 |];
register_states = 
[| local_0, local_1, '.', '.', '.', '.', '.'
 | local_0,    in_0, '.', '.', '.', '.', '.'
 | local_0,    in_0, '.', '.', '.', '.', '.'
 | local_0,    in_0, '.', '.', '.', '.', '.'
 | local_0,    in_0, '.', '.', '.', '.', '.'
 | local_0,    in_0, '.', '.', '.', '.', '.'
 | local_0,    in_0, '.', '.', '.', '.', '.'
 | local_0,    in_0, '.', '.', '.', '.', '.'
 | local_0,    in_0, '.', '.', '.', '.', '.'
 | local_0,    in_0, '.', '.', '.', '.', '.'
 |  's(2)',    in_0, '.', '.', '.', '.', '.'
 |  's(2)',    in_0, '.', '.', '.', '.', '.'
 |  's(2)',    in_0, '.', '.', '.', '.', '.'
 |];
program = [S(SET2), O('i32.sub_0'), O('i32.const_0'), O('i32.store8_7'), O('i32.load16_s_2'), O('i32.store_3'), O('i32.const_1'), O('i32.store8_9'), O('i32.load16_s_10'), S(SET1), NOP, NOP];
% time elapsed: 0.40 s
----------
==========
% time elapsed: 0.42 s
% [value > 9]
